0 0 12 
1 0 25 
2 0 26 
3 0 27 
4 0 28 
5 0 43 
6 0 44 
7 0 45 
8 0 51 
9 0 57 
10 0 63 
11 0 69 
12 0 76 
13 0 82 
14 2 11 
15 2 15 
16 2 24 
17 2 34 
18 2 36 
19 2 38 
20 2 40 
21 2 42 
22 2 44 
23 2 47 
24 2 49 
25 2 51 
26 2 53 
27 2 55 
28 2 57 
29 2 60 
30 2 62 
31 2 63 
32 2 65 
33 2 67 
34 2 70 
35 2 72 
36 2 73 
37 2 75 
38 2 9 
39 5 15 
40 5 20 
41 5 25 
42 5 29 
43 5 35 
44 5 60 
45 5 72 
46 5 75 
47 5 78 
48 5 82 
49 5 86 
50 5 90 
51 8 45 
52 9 17 
53 9 26 
54 9 33 
55 9 38 
56 9 70 
57 9 73 
58 9 83 
59 9 86 
60 9 90 
61 10 14 
62 10 17 
63 10 24 
64 10 26 
65 10 33 
66 10 59 
67 10 70 
68 10 73 
69 10 84 
70 10 88 
71 11 14 
72 11 17 
73 11 24 
74 11 26 
75 11 33 
76 11 5 
77 11 51 
78 11 58 
79 11 59 
80 11 67 
81 11 70 
82 11 73 
83 11 76 
84 12 17 
85 12 26 
86 12 45 
87 12 79 
88 15 15 
89 15 20 
90 15 25 
91 15 29 
92 15 45 
93 15 58 
94 15 60 
95 15 82 
96 15 85 
97 15 89 
98 17 47 
99 17 49 
100 17 63 
101 17 64 
102 17 65 
103 18 18 
104 18 19 
105 18 21 
106 18 22 
107 18 27 
108 18 28 
109 18 30 
110 18 31 
111 18 67 
112 25 13 
113 25 17 
114 25 20 
115 25 22 
116 25 24 
117 25 26 
118 25 28 
119 25 30 
120 25 32 
121 25 33 
122 25 35 
123 25 37 
124 25 40 
125 25 41 
126 25 43 
127 25 45 
128 25 47 
129 25 6 
130 25 70 
131 25 71 
132 25 77 
133 25 78 
134 25 84 
135 25 85 
136 25 97 
137 28 18 
138 28 21 
139 28 89 
140 28 91 
141 31 31 
142 32 19 
143 32 24 
144 33 17 
145 33 19 
146 34 17 
147 34 19 
148 34 37 
149 34 45 
150 34 49 
151 34 88 
152 35 31 
153 38 18 
154 38 31 
155 38 89 
156 38 91 
157 40 33 
158 40 34 
159 40 35 
160 40 41 
161 40 42 
162 40 43 
163 40 6 
164 40 70 
165 40 78 
166 40 84 
167 41 13 
168 41 37 
169 41 69 
170 41 77 
171 41 85 
172 48 12 
173 48 13 
174 48 14 
175 48 27 
176 48 28 
177 48 30 
178 48 32 
179 48 36 
180 48 40 
181 48 44 
182 48 45 
183 48 46 
184 48 47 
185 48 51 
186 48 53 
187 48 55 
188 48 57 
189 48 59 
190 48 60 
191 48 62 
192 48 64 
193 48 66 
194 48 69 
195 48 71 
196 48 74 
197 48 76 
198 48 78 
199 48 80 
200 48 82 
201 48 84 
202 51 23 
203 51 36 
204 51 38 
205 51 40 
206 51 42 
207 51 69 
208 51 7 
209 51 71 
210 51 75 
211 51 79 
212 51 83 
213 51 88 
214 51 9 
215 51 92 
216 55 11 
217 55 20 
218 55 73 
219 56 20 
220 56 35 
221 56 39 
222 56 68 
223 56 73 
224 57 15 
225 57 20 
226 57 32 
227 57 35 
228 57 39 
229 57 5 
230 57 51 
231 57 58 
232 57 64 
233 57 68 
234 57 73 
235 57 8 
236 57 86 
237 58 20 
238 58 89 
239 60 0 
240 60 97 
241 61 0 
242 61 23 
243 61 36 
244 61 38 
245 61 40 
246 61 42 
247 61 58 
248 61 69 
249 61 71 
250 61 9 
251 61 92 
252 61 97 
253 62 0 
254 62 97 
255 63 28 
256 63 29 
257 63 30 
258 63 44 
259 63 45 
260 63 46 
261 63 47 
262 63 60 
263 63 61 
264 63 62 
265 64 21 
266 64 22 
267 64 24 
268 64 25 
269 64 32 
270 71 13 
271 71 17 
272 71 30 
273 71 31 
274 71 45 
275 71 46 
276 71 6 
277 71 74 
278 71 76 
279 71 78 
280 71 80 
281 71 82 
282 71 84 
283 71 87 
284 72 32 
285 72 47 
286 74 18 
287 74 52 
288 74 60 
289 74 68 
290 74 75 
291 74 79 
292 74 83 
293 74 87 
294 74 89 
295 74 91 
296 77 56 
297 77 62 
298 77 70 
299 78 49 
300 78 56 
301 78 62 
302 78 70 
303 78 73 
304 79 17 
305 79 49 
306 79 56 
307 79 62 
308 79 70 
309 79 73 
310 80 17 
311 80 19 
312 80 34 
313 80 49 
314 80 56 
315 80 63 
316 80 71 
317 80 73 
318 80 88 
319 81 49 
320 81 56 
321 84 18 
322 84 52 
323 84 89 
324 84 91 
325 86 6 
326 87 13 
327 87 29 
328 87 32 
329 87 44 
330 87 47 
331 87 50 
332 87 51 
333 87 53 
334 87 54 
335 87 57 
336 87 58 
337 87 60 
338 87 61 
339 87 62 
340 87 65 
341 87 66 
342 87 68 
343 87 69 
344 87 70 
345 94 11 
346 94 18 
347 94 19 
348 94 21 
349 94 23 
350 94 41 
351 94 42 
352 94 45 
353 94 47 
354 94 48 
355 94 51 
356 94 52 
357 94 54 
358 94 57 
359 94 58 
360 94 59 
361 94 66 
362 94 68 
363 94 81 
364 94 9 
365 95 43 
366 97 14 
367 97 29 
368 97 48 
369 97 52 
370 97 55 
371 97 67 
372 97 73 
373 97 78 
374 97 85 
375 97 88 
376 97 92 
377 100 45 
378 101 45 
379 101 48 
380 101 52 
381 101 56 
382 101 65 
383 101 70 
384 102 46 
385 102 50 
386 102 54 
387 102 65 
388 102 70 
389 103 13 
390 103 23 
391 103 30 
392 103 45 
393 103 5 
394 103 54 
395 103 60 
396 103 65 
397 103 70 
398 103 77 
399 103 83 
400 103 86 
401 104 26 
402 104 70 
403 107 14 
404 107 29 
405 107 47 
406 107 51 
407 107 55 
408 107 73 
409 107 78 
410 108 0 
411 108 97 
412 109 19 
413 109 20 
414 109 21 
415 109 81 
416 110 23 
417 110 40 
418 110 43 
419 110 71 
420 110 72 
421 110 74 
422 110 75 
